# Solution for model GasLib-40
# Objective value = 1.2930814018042518e+01
loadshed[innode_1] 0
loadshed[innode_2] 0
loadshed[innode_3] 0
loadshed[innode_4] 0
loadshed[innode_5] 0
loadshed[innode_6] 0
loadshed[innode_7] 0
loadshed[innode_8] 0
loadshed[source_1] -2.4520476849127282e-01
loadshed[source_2] 1.4129999719692632e-01
loadshed[source_3] 1.8569863110521656e-01
loadshed[sink_1] 0
loadshed[sink_2] 0
loadshed[sink_3] 0
loadshed[sink_4] 0
loadshed[sink_5] 0
loadshed[sink_6] 0
loadshed[sink_7] 0
loadshed[sink_8] 0
loadshed[sink_9] 0
loadshed[sink_10] 0
loadshed[sink_11] 0
loadshed[sink_12] 7.9067397817330043e-01
loadshed[sink_13] 0
loadshed[sink_14] 0
loadshed[sink_15] 0
loadshed[sink_16] 0
loadshed[sink_17] 0
loadshed[sink_18] 0
loadshed[sink_19] 0
loadshed[sink_20] 0
loadshed[sink_21] 0
loadshed[sink_22] 0
loadshed[sink_23] 0
loadshed[sink_24] 0
loadshed[sink_25] 0
loadshed[sink_26] 0
loadshed[sink_27] 0
loadshed[sink_28] 0
loadshed[sink_29] 0
flow[source_1,sink_3] 1.9685476774099880e+02
flow[innode_1,sink_16] 1.6354166666666970e+01
flow[innode_6,sink_13] -1.4253962936734140e+01
flow[sink_13,sink_14] -3.0608129603400808e+01
flow[sink_14,sink_10] -4.6962296270067476e+01
flow[sink_25,sink_26] 2.1602751931529266e+02
flow[sink_26,sink_9] 1.2879941823322937e+02
flow[sink_9,sink_18] 1.1244525156656270e+02
flow[sink_26,sink_4] 7.0873934415396718e+01
flow[sink_4,sink_20] 0
flow[sink_18,sink_6] 9.6091084899896032e+01
flow[sink_25,innode_8] -1.6414643440766244e+02
flow[sink_6,sink_7] 4.7028584899895577e+01
flow[sink_6,sink_22] 3.2708333333333641e+01
flow[sink_7,sink_24] 3.6131685981957489e+01
flow[sink_22,sink_1] 1.6354166666666970e+01
flow[sink_24,sink_21] 1.9777519315290817e+01
flow[sink_21,sink_12] 3.4233526486241495e+00
flow[sink_7,sink_5] -5.4572677487283414e+00
flow[sink_5,sink_17] -2.1811434415394956e+01
flow[sink_17,sink_4] -5.4519767748730146e+01
flow[sink_17,sink_8] 1.6354166666668334e+01
flow[sink_3,sink_23] 16.3541666666697
flow[sink_8,sink_20] 0
flow[sink_25,sink_20] 1.6354166666668618e+01
flow[sink_25,sink_15] -7.0335455304231189e+01
flow[sink_15,sink_29] -1.0304378863758211e+02
flow[sink_29,sink_28] 1.6354166666667879e+01
flow[sink_29,sink_2] 0
flow[sink_2,sink_15] -1.6354166666684250e+01
flow[sink_29,innode_7] -1.3575212197091648e+02
flow[innode_4,sink_19] 5.0298275035206288e+01
flow[sink_19,innode_3] 4.6859695259347909e+01
flow[innode_4,innode_5] 7.8434854568194723e+01
flow[sink_27,innode_5] -7.8434854568194723e+01
flow[sink_27,sink_19] 6.2080687901528051e+01
flow[sink_10,sink_11] 3.2708333333333641e+01
flow[sink_10,innode_2] -4.9165101010719873e+01
flow[sink_10,innode_3] -4.6859695259347909e+01
flow[innode_6,sink_25] 1.4253962936734140e+01
flow[sink_11,innode_1] 1.6354166666666970e+01
flow[sink_19,innode_2] 4.9165101010719873e+01
flow[source_3,innode_4] 128.733129603401
flow[source_2,innode_7] 1.3575212197091648e+02
flow[sink_3,innode_8] 1.6414643440766244e+02
pressure[innode_1] 76.2252587630509
pressure[innode_2] 7.8975538717588549e+01
pressure[innode_3] 7.8871773228721551e+01
pressure[innode_4] 81.01325
pressure[innode_5] 8.0959298371145309e+01
pressure[innode_6] 7.4022353828227580e+01
pressure[innode_7] 81.01325
pressure[innode_8] 8.0355239712688856e+01
pressure[source_1] 81.01325
pressure[source_2] 81.01325
pressure[source_3] 81.01325
pressure[sink_1] 4.2363084881232567e+01
pressure[sink_2] 7.4310156573090055e+01
pressure[sink_3] 8.0355239712688856e+01
pressure[sink_4] 4.9796567057273748e+01
pressure[sink_5] 46.0882071009237
pressure[sink_6] 4.4464162491619938e+01
pressure[sink_7] 4.3818572120124415e+01
pressure[sink_8] 4.7095916111880769e+01
pressure[sink_9] 5.1098684905371648e+01
pressure[sink_10] 7.6376960070654448e+01
pressure[sink_11] 76.2252587630509
pressure[sink_12] 1.01325
pressure[sink_13] 74.1009335438393
pressure[sink_14] 7.4155709399000742e+01
pressure[sink_15] 74.3635493228565
pressure[sink_16] 7.5203608928233223e+01
pressure[sink_17] 4.7713001307294391e+01
pressure[sink_18] 4.7030080559205345e+01
pressure[sink_19] 7.8975538717588549e+01
pressure[sink_20] 7.0123570500061348e+01
pressure[sink_21] 2.2314662332007429e+00
pressure[sink_22] 4.3426854023587573e+01
pressure[sink_23] 8.0190521701029070e+01
pressure[sink_24] 2.4504838841106387e+00
pressure[sink_25] 7.4022353828227580e+01
pressure[sink_26] 5.8807662508778186e+01
pressure[sink_27] 8.0308434010256860e+01
pressure[sink_28] 7.7087130271987633e+01
pressure[sink_29] 7.7382412545604808e+01
interdiction[source_1,sink_3] 0
interdiction[innode_1,sink_16] 0
interdiction[innode_6,sink_13] 0
interdiction[sink_13,sink_14] 0
interdiction[sink_14,sink_10] 0
interdiction[sink_25,sink_26] 0
interdiction[sink_26,sink_9] 0
interdiction[sink_9,sink_18] 0
interdiction[sink_26,sink_4] 0
interdiction[sink_4,sink_20] 1
interdiction[sink_18,sink_6] 0
interdiction[sink_25,innode_8] 0
interdiction[sink_6,sink_7] 0
interdiction[sink_6,sink_22] 0
interdiction[sink_7,sink_24] 0
interdiction[sink_22,sink_1] 0
interdiction[sink_24,sink_21] 0
interdiction[sink_21,sink_12] 0
interdiction[sink_7,sink_5] 0
interdiction[sink_5,sink_17] 0
interdiction[sink_17,sink_4] 0
interdiction[sink_17,sink_8] 0
interdiction[sink_3,sink_23] 0
interdiction[sink_8,sink_20] 1
interdiction[sink_25,sink_20] 0
interdiction[sink_25,sink_15] 0
interdiction[sink_15,sink_29] 0
interdiction[sink_29,sink_28] 0
interdiction[sink_29,sink_2] 1
interdiction[sink_2,sink_15] 0
interdiction[sink_29,innode_7] 0
interdiction[innode_4,sink_19] 0
interdiction[sink_19,innode_3] 0
interdiction[innode_4,innode_5] 0
interdiction[sink_27,innode_5] 0
interdiction[sink_27,sink_19] 0
interdiction[sink_10,sink_11] 0
interdiction[sink_10,innode_2] 0
interdiction[sink_10,innode_3] 0
interdiction[innode_6,sink_25] 0
interdiction[sink_11,innode_1] 0
interdiction[sink_19,innode_2] 0
interdiction[source_3,innode_4] 0
interdiction[source_2,innode_7] 0
interdiction[sink_3,innode_8] 0
WCcheckFlow[source_1,sink_3] 39
WCcheckFlow[innode_1,sink_16] 1
WCcheckFlow[innode_6,sink_13] 13
WCcheckFlow[sink_13,sink_14] 12
WCcheckFlow[sink_14,sink_10] 11
WCcheckFlow[sink_25,sink_26] 14
WCcheckFlow[sink_26,sink_9] 12
WCcheckFlow[sink_9,sink_18] 11
WCcheckFlow[sink_26,sink_4] 1
WCcheckFlow[sink_4,sink_20] 0
WCcheckFlow[sink_18,sink_6] 10
WCcheckFlow[sink_25,innode_8] -36
WCcheckFlow[sink_6,sink_7] 7
WCcheckFlow[sink_6,sink_22] 2
WCcheckFlow[sink_7,sink_24] 3
WCcheckFlow[sink_22,sink_1] 1
WCcheckFlow[sink_24,sink_21] 2
WCcheckFlow[sink_21,sink_12] 1
WCcheckFlow[sink_7,sink_5] 3
WCcheckFlow[sink_5,sink_17] 2
WCcheckFlow[sink_17,sink_4] 0
WCcheckFlow[sink_17,sink_8] 1
WCcheckFlow[sink_3,sink_23] 1
WCcheckFlow[sink_8,sink_20] 0
WCcheckFlow[sink_25,sink_20] 1
WCcheckFlow[sink_25,sink_15] 6
WCcheckFlow[sink_15,sink_29] 4
WCcheckFlow[sink_29,sink_28] 1
WCcheckFlow[sink_29,sink_2] 0
WCcheckFlow[sink_2,sink_15] -1
WCcheckFlow[sink_29,innode_7] 2
WCcheckFlow[innode_4,sink_19] -4
WCcheckFlow[sink_19,innode_3] -5
WCcheckFlow[innode_4,innode_5] 2
WCcheckFlow[sink_27,innode_5] -1
WCcheckFlow[sink_27,sink_19] 0
WCcheckFlow[sink_10,sink_11] 3
WCcheckFlow[sink_10,innode_2] 1
WCcheckFlow[sink_10,innode_3] 6
WCcheckFlow[innode_6,sink_25] -14
WCcheckFlow[sink_11,innode_1] 2
WCcheckFlow[sink_19,innode_2] 0
WCcheckFlow[source_3,innode_4] -1
WCcheckFlow[source_2,innode_7] -1
WCcheckFlow[sink_3,innode_8] 37
